<?xml version="1.0" encoding="UTF-8"?><osil xmlns="os.optimizationservices.org"   xmlns:xsi="http://www.w3.org/2001/XMLSchema-instance" xsi:schemaLocation="os.optimizationservices.org http://www.optimizationservices.org/schemas/2.0/OSiL.xsd" ><instanceHeader><name>q_30_0_50_5</name></instanceHeader><instanceData><variables numberOfVariables="30"><var name="x1" ub="1"/><var name="x2" ub="1"/><var name="x3" ub="1"/><var name="x4" ub="1"/><var name="x5" ub="1"/><var name="x6" ub="1"/><var name="x7" ub="1"/><var name="x8" ub="1"/><var name="x9" ub="1"/><var name="x10" ub="1"/><var name="x11" ub="1"/><var name="x12" ub="1"/><var name="x13" ub="1"/><var name="x14" ub="1"/><var name="x15" ub="1"/><var name="x16" ub="1"/><var name="x17" ub="1"/><var name="x18" ub="1"/><var name="x19" ub="1"/><var name="x20" ub="1"/><var name="x21" ub="1"/><var name="x22" ub="1"/><var name="x23" ub="1"/><var name="x24" ub="1"/><var name="x25" ub="1"/><var name="x26" ub="1"/><var name="x27" ub="1"/><var name="x28" ub="1"/><var name="x29" ub="1"/><var name="x30" ub="1"/></variables><objectives numberOfObjectives="1"><obj maxOrMin="min" name="defObj_x31" numberOfObjCoef="30"><coef idx="0">-.3401</coef><coef idx="1">3.58e-2</coef><coef idx="2">.6977</coef><coef idx="3">-.1999</coef><coef idx="4">-.8592</coef><coef idx="5">-.7816</coef><coef idx="6">-.908</coef><coef idx="7">-.437</coef><coef idx="8">.1939</coef><coef idx="9">-.7777</coef><coef idx="10">-.7244</coef><coef idx="11">-.1023</coef><coef idx="12">.1586</coef><coef idx="13">-.1863</coef><coef idx="14">-.9372</coef><coef idx="15">-.2394</coef><coef idx="16">-.8627</coef><coef idx="17">.3131</coef><coef idx="18">-.1544</coef><coef idx="19">.8563</coef><coef idx="20">-.4901</coef><coef idx="21">-.7055</coef><coef idx="22">.678</coef><coef idx="23">-1.02e-2</coef><coef idx="24">.7557</coef><coef idx="25">.6252</coef><coef idx="26">.2769</coef><coef idx="27">.2594</coef><coef idx="28">-.7851</coef><coef idx="29">-7.3e-2</coef></obj></objectives><quadraticCoefficients  numberOfQuadraticTerms="232" ><qTerm  idx="-1"  idxOne="0"  idxTwo="2"  coef="-.835"/><qTerm  idx="-1"  idxOne="0"  idxTwo="6"  coef=".8619"/><qTerm  idx="-1"  idxOne="0"  idxTwo="7"  coef="1.7423"/><qTerm  idx="-1"  idxOne="0"  idxTwo="15"  coef="7.82e-2"/><qTerm  idx="-1"  idxOne="0"  idxTwo="18"  coef=".433"/><qTerm  idx="-1"  idxOne="0"  idxTwo="19"  coef="-1.8084"/><qTerm  idx="-1"  idxOne="0"  idxTwo="20"  coef="1.1008"/><qTerm  idx="-1"  idxOne="0"  idxTwo="23"  coef=".3679"/><qTerm  idx="-1"  idxOne="0"  idxTwo="24"  coef="-.2223"/><qTerm  idx="-1"  idxOne="0"  idxTwo="26"  coef="-1.2824"/><qTerm  idx="-1"  idxOne="0"  idxTwo="27"  coef=".3934"/><qTerm  idx="-1"  idxOne="1"  idxTwo="3"  coef="1.43e-2"/><qTerm  idx="-1"  idxOne="1"  idxTwo="4"  coef="-1.1758"/><qTerm  idx="-1"  idxOne="1"  idxTwo="11"  coef="-1.445"/><qTerm  idx="-1"  idxOne="1"  idxTwo="12"  coef="1.7913"/><qTerm  idx="-1"  idxOne="1"  idxTwo="14"  coef="-1.3599"/><qTerm  idx="-1"  idxOne="1"  idxTwo="15"  coef="1.0554"/><qTerm  idx="-1"  idxOne="1"  idxTwo="16"  coef="-.2143"/><qTerm  idx="-1"  idxOne="1"  idxTwo="17"  coef="1.7271"/><qTerm  idx="-1"  idxOne="1"  idxTwo="18"  coef=".7999"/><qTerm  idx="-1"  idxOne="1"  idxTwo="20"  coef=".7435"/><qTerm  idx="-1"  idxOne="1"  idxTwo="22"  coef=".2306"/><qTerm  idx="-1"  idxOne="1"  idxTwo="23"  coef="-1.7959"/><qTerm  idx="-1"  idxOne="1"  idxTwo="25"  coef=".5526"/><qTerm  idx="-1"  idxOne="1"  idxTwo="28"  coef=".376"/><qTerm  idx="-1"  idxOne="2"  idxTwo="7"  coef="-1.4752"/><qTerm  idx="-1"  idxOne="2"  idxTwo="8"  coef="1.5102"/><qTerm  idx="-1"  idxOne="2"  idxTwo="10"  coef="1.2749"/><qTerm  idx="-1"  idxOne="2"  idxTwo="11"  coef="2.7e-3"/><qTerm  idx="-1"  idxOne="2"  idxTwo="12"  coef="1.0908"/><qTerm  idx="-1"  idxOne="2"  idxTwo="13"  coef=".648"/><qTerm  idx="-1"  idxOne="2"  idxTwo="19"  coef="-.3128"/><qTerm  idx="-1"  idxOne="2"  idxTwo="22"  coef="-1.6519"/><qTerm  idx="-1"  idxOne="2"  idxTwo="24"  coef="-1.2448"/><qTerm  idx="-1"  idxOne="2"  idxTwo="25"  coef="1.967"/><qTerm  idx="-1"  idxOne="2"  idxTwo="26"  coef="-1.3651"/><qTerm  idx="-1"  idxOne="2"  idxTwo="27"  coef="-.773"/><qTerm  idx="-1"  idxOne="2"  idxTwo="29"  coef=".2219"/><qTerm  idx="-1"  idxOne="3"  idxTwo="4"  coef=".1305"/><qTerm  idx="-1"  idxOne="3"  idxTwo="7"  coef=".2854"/><qTerm  idx="-1"  idxOne="3"  idxTwo="9"  coef="1.276"/><qTerm  idx="-1"  idxOne="3"  idxTwo="12"  coef="-1.9245"/><qTerm  idx="-1"  idxOne="3"  idxTwo="13"  coef="1.9302"/><qTerm  idx="-1"  idxOne="3"  idxTwo="15"  coef="1.9899"/><qTerm  idx="-1"  idxOne="3"  idxTwo="17"  coef="1.3267"/><qTerm  idx="-1"  idxOne="3"  idxTwo="18"  coef="1.1407"/><qTerm  idx="-1"  idxOne="3"  idxTwo="20"  coef=".5151"/><qTerm  idx="-1"  idxOne="3"  idxTwo="21"  coef=".8667"/><qTerm  idx="-1"  idxOne="3"  idxTwo="22"  coef="1.7449"/><qTerm  idx="-1"  idxOne="3"  idxTwo="23"  coef="-1.3259"/><qTerm  idx="-1"  idxOne="3"  idxTwo="24"  coef=".8375"/><qTerm  idx="-1"  idxOne="3"  idxTwo="28"  coef="-7.89e-2"/><qTerm  idx="-1"  idxOne="4"  idxTwo="10"  coef="-1.9175"/><qTerm  idx="-1"  idxOne="4"  idxTwo="12"  coef="1.9264"/><qTerm  idx="-1"  idxOne="4"  idxTwo="14"  coef="1.2641"/><qTerm  idx="-1"  idxOne="4"  idxTwo="17"  coef="1.6347"/><qTerm  idx="-1"  idxOne="4"  idxTwo="18"  coef="-.8386"/><qTerm  idx="-1"  idxOne="4"  idxTwo="19"  coef="-1.8005"/><qTerm  idx="-1"  idxOne="4"  idxTwo="20"  coef=".2695"/><qTerm  idx="-1"  idxOne="4"  idxTwo="22"  coef="-.3652"/><qTerm  idx="-1"  idxOne="4"  idxTwo="23"  coef="-.3686"/><qTerm  idx="-1"  idxOne="4"  idxTwo="25"  coef=".5562"/><qTerm  idx="-1"  idxOne="4"  idxTwo="26"  coef=".8198"/><qTerm  idx="-1"  idxOne="4"  idxTwo="27"  coef=".218"/><qTerm  idx="-1"  idxOne="4"  idxTwo="28"  coef="-1.0392"/><qTerm  idx="-1"  idxOne="4"  idxTwo="29"  coef="1.53e-2"/><qTerm  idx="-1"  idxOne="5"  idxTwo="5"  coef="-1.1239"/><qTerm  idx="-1"  idxOne="5"  idxTwo="9"  coef=".1045"/><qTerm  idx="-1"  idxOne="5"  idxTwo="10"  coef="1.2033"/><qTerm  idx="-1"  idxOne="5"  idxTwo="11"  coef="-1.7036"/><qTerm  idx="-1"  idxOne="5"  idxTwo="12"  coef="-.8954"/><qTerm  idx="-1"  idxOne="5"  idxTwo="15"  coef="-1.0816"/><qTerm  idx="-1"  idxOne="5"  idxTwo="16"  coef=".8133"/><qTerm  idx="-1"  idxOne="5"  idxTwo="17"  coef="-.3212"/><qTerm  idx="-1"  idxOne="5"  idxTwo="18"  coef=".1627"/><qTerm  idx="-1"  idxOne="5"  idxTwo="19"  coef="1.1917"/><qTerm  idx="-1"  idxOne="5"  idxTwo="21"  coef="-1.3022"/><qTerm  idx="-1"  idxOne="5"  idxTwo="22"  coef=".5161"/><qTerm  idx="-1"  idxOne="5"  idxTwo="23"  coef="-1.0215"/><qTerm  idx="-1"  idxOne="5"  idxTwo="27"  coef=".1858"/><qTerm  idx="-1"  idxOne="5"  idxTwo="29"  coef=".7251"/><qTerm  idx="-1"  idxOne="6"  idxTwo="7"  coef="1.846"/><qTerm  idx="-1"  idxOne="6"  idxTwo="9"  coef="-1.1633"/><qTerm  idx="-1"  idxOne="6"  idxTwo="11"  coef="1.9276"/><qTerm  idx="-1"  idxOne="6"  idxTwo="12"  coef="1.346"/><qTerm  idx="-1"  idxOne="6"  idxTwo="13"  coef="-1.7945"/><qTerm  idx="-1"  idxOne="6"  idxTwo="14"  coef="1.2935"/><qTerm  idx="-1"  idxOne="6"  idxTwo="16"  coef=".7022"/><qTerm  idx="-1"  idxOne="6"  idxTwo="18"  coef="1.4787"/><qTerm  idx="-1"  idxOne="6"  idxTwo="21"  coef="-.9558"/><qTerm  idx="-1"  idxOne="6"  idxTwo="26"  coef=".8902"/><qTerm  idx="-1"  idxOne="6"  idxTwo="29"  coef="1.8738"/><qTerm  idx="-1"  idxOne="7"  idxTwo="8"  coef="-.7984"/><qTerm  idx="-1"  idxOne="7"  idxTwo="9"  coef="-.3919"/><qTerm  idx="-1"  idxOne="7"  idxTwo="10"  coef=".334"/><qTerm  idx="-1"  idxOne="7"  idxTwo="13"  coef="-1.2866"/><qTerm  idx="-1"  idxOne="7"  idxTwo="14"  coef="-.6154"/><qTerm  idx="-1"  idxOne="7"  idxTwo="15"  coef="-.4977"/><qTerm  idx="-1"  idxOne="7"  idxTwo="16"  coef="1.9034"/><qTerm  idx="-1"  idxOne="7"  idxTwo="17"  coef="1.4758"/><qTerm  idx="-1"  idxOne="7"  idxTwo="18"  coef="-8.19e-2"/><qTerm  idx="-1"  idxOne="7"  idxTwo="19"  coef="-7.35e-2"/><qTerm  idx="-1"  idxOne="7"  idxTwo="20"  coef="-.3348"/><qTerm  idx="-1"  idxOne="7"  idxTwo="21"  coef="-.9703"/><qTerm  idx="-1"  idxOne="7"  idxTwo="23"  coef="-.1506"/><qTerm  idx="-1"  idxOne="7"  idxTwo="25"  coef="-1.0943"/><qTerm  idx="-1"  idxOne="8"  idxTwo="9"  coef="1.0466"/><qTerm  idx="-1"  idxOne="8"  idxTwo="11"  coef="7.24e-2"/><qTerm  idx="-1"  idxOne="8"  idxTwo="12"  coef="-1.4684"/><qTerm  idx="-1"  idxOne="8"  idxTwo="13"  coef="1.8105"/><qTerm  idx="-1"  idxOne="8"  idxTwo="15"  coef="-.4731"/><qTerm  idx="-1"  idxOne="8"  idxTwo="18"  coef="-1.2216"/><qTerm  idx="-1"  idxOne="8"  idxTwo="19"  coef="1.6346"/><qTerm  idx="-1"  idxOne="8"  idxTwo="25"  coef="-.7825"/><qTerm  idx="-1"  idxOne="8"  idxTwo="27"  coef="-1.3904"/><qTerm  idx="-1"  idxOne="8"  idxTwo="28"  coef="-1.4493"/><qTerm  idx="-1"  idxOne="9"  idxTwo="12"  coef="1.8352"/><qTerm  idx="-1"  idxOne="9"  idxTwo="14"  coef="-1.7664"/><qTerm  idx="-1"  idxOne="9"  idxTwo="15"  coef="1.3297"/><qTerm  idx="-1"  idxOne="9"  idxTwo="17"  coef="-1.7368"/><qTerm  idx="-1"  idxOne="9"  idxTwo="18"  coef="-.7949"/><qTerm  idx="-1"  idxOne="9"  idxTwo="19"  coef="1.0123"/><qTerm  idx="-1"  idxOne="9"  idxTwo="21"  coef="1.9382"/><qTerm  idx="-1"  idxOne="9"  idxTwo="22"  coef="1.8134"/><qTerm  idx="-1"  idxOne="9"  idxTwo="23"  coef="-1.4085"/><qTerm  idx="-1"  idxOne="9"  idxTwo="25"  coef=".4536"/><qTerm  idx="-1"  idxOne="9"  idxTwo="26"  coef=".9981"/><qTerm  idx="-1"  idxOne="9"  idxTwo="27"  coef="-.9289"/><qTerm  idx="-1"  idxOne="9"  idxTwo="28"  coef="-.9662"/><qTerm  idx="-1"  idxOne="9"  idxTwo="29"  coef=".724"/><qTerm  idx="-1"  idxOne="10"  idxTwo="12"  coef="-1.8958"/><qTerm  idx="-1"  idxOne="10"  idxTwo="13"  coef="1.078"/><qTerm  idx="-1"  idxOne="10"  idxTwo="14"  coef="1.6178"/><qTerm  idx="-1"  idxOne="10"  idxTwo="17"  coef="-1.5477"/><qTerm  idx="-1"  idxOne="10"  idxTwo="22"  coef="-.5485"/><qTerm  idx="-1"  idxOne="10"  idxTwo="23"  coef="-.5054"/><qTerm  idx="-1"  idxOne="10"  idxTwo="26"  coef="-1.979"/><qTerm  idx="-1"  idxOne="11"  idxTwo="12"  coef="-1.1706"/><qTerm  idx="-1"  idxOne="11"  idxTwo="13"  coef="-1.2081"/><qTerm  idx="-1"  idxOne="11"  idxTwo="18"  coef="1.7332"/><qTerm  idx="-1"  idxOne="11"  idxTwo="19"  coef=".8874"/><qTerm  idx="-1"  idxOne="11"  idxTwo="21"  coef="1.244"/><qTerm  idx="-1"  idxOne="11"  idxTwo="24"  coef="-.1926"/><qTerm  idx="-1"  idxOne="11"  idxTwo="25"  coef="-1.7672"/><qTerm  idx="-1"  idxOne="11"  idxTwo="27"  coef="-.9717"/><qTerm  idx="-1"  idxOne="12"  idxTwo="14"  coef="1.1894"/><qTerm  idx="-1"  idxOne="12"  idxTwo="15"  coef="-.206"/><qTerm  idx="-1"  idxOne="12"  idxTwo="17"  coef="-1.1125"/><qTerm  idx="-1"  idxOne="12"  idxTwo="22"  coef="1.7478"/><qTerm  idx="-1"  idxOne="12"  idxTwo="23"  coef=".4899"/><qTerm  idx="-1"  idxOne="12"  idxTwo="24"  coef="-.3779"/><qTerm  idx="-1"  idxOne="12"  idxTwo="25"  coef="1.6816"/><qTerm  idx="-1"  idxOne="12"  idxTwo="26"  coef="-1.3958"/><qTerm  idx="-1"  idxOne="12"  idxTwo="27"  coef="-.1208"/><qTerm  idx="-1"  idxOne="13"  idxTwo="13"  coef="-.2401"/><qTerm  idx="-1"  idxOne="13"  idxTwo="14"  coef="-.3924"/><qTerm  idx="-1"  idxOne="13"  idxTwo="21"  coef="-1.8907"/><qTerm  idx="-1"  idxOne="13"  idxTwo="22"  coef="1.6256"/><qTerm  idx="-1"  idxOne="13"  idxTwo="23"  coef=".2732"/><qTerm  idx="-1"  idxOne="13"  idxTwo="24"  coef="-.1069"/><qTerm  idx="-1"  idxOne="13"  idxTwo="26"  coef="-.515"/><qTerm  idx="-1"  idxOne="13"  idxTwo="27"  coef=".9551"/><qTerm  idx="-1"  idxOne="14"  idxTwo="14"  coef="-1.6975"/><qTerm  idx="-1"  idxOne="14"  idxTwo="16"  coef=".307"/><qTerm  idx="-1"  idxOne="14"  idxTwo="18"  coef="1.2486"/><qTerm  idx="-1"  idxOne="14"  idxTwo="20"  coef="1.8e-3"/><qTerm  idx="-1"  idxOne="14"  idxTwo="21"  coef="-1.9625"/><qTerm  idx="-1"  idxOne="14"  idxTwo="26"  coef="-1.482"/><qTerm  idx="-1"  idxOne="14"  idxTwo="27"  coef="-.4702"/><qTerm  idx="-1"  idxOne="14"  idxTwo="29"  coef="-.6194"/><qTerm  idx="-1"  idxOne="15"  idxTwo="15"  coef="-1.9148"/><qTerm  idx="-1"  idxOne="15"  idxTwo="18"  coef=".4026"/><qTerm  idx="-1"  idxOne="15"  idxTwo="20"  coef="1.6416"/><qTerm  idx="-1"  idxOne="15"  idxTwo="21"  coef="-1.7514"/><qTerm  idx="-1"  idxOne="15"  idxTwo="23"  coef=".2994"/><qTerm  idx="-1"  idxOne="15"  idxTwo="27"  coef="-.9745"/><qTerm  idx="-1"  idxOne="16"  idxTwo="17"  coef="6.82e-2"/><qTerm  idx="-1"  idxOne="16"  idxTwo="18"  coef="-1.3885"/><qTerm  idx="-1"  idxOne="16"  idxTwo="20"  coef="-.4537"/><qTerm  idx="-1"  idxOne="16"  idxTwo="21"  coef=".4537"/><qTerm  idx="-1"  idxOne="16"  idxTwo="23"  coef="-1.3408"/><qTerm  idx="-1"  idxOne="16"  idxTwo="24"  coef=".9705"/><qTerm  idx="-1"  idxOne="16"  idxTwo="25"  coef="-.3462"/><qTerm  idx="-1"  idxOne="16"  idxTwo="26"  coef="-.7753"/><qTerm  idx="-1"  idxOne="16"  idxTwo="27"  coef=".7746"/><qTerm  idx="-1"  idxOne="16"  idxTwo="29"  coef="1.1223"/><qTerm  idx="-1"  idxOne="17"  idxTwo="17"  coef="1.7018"/><qTerm  idx="-1"  idxOne="17"  idxTwo="20"  coef="1.2088"/><qTerm  idx="-1"  idxOne="17"  idxTwo="24"  coef="1.6903"/><qTerm  idx="-1"  idxOne="17"  idxTwo="26"  coef=".1274"/><qTerm  idx="-1"  idxOne="17"  idxTwo="28"  coef="-.698"/><qTerm  idx="-1"  idxOne="18"  idxTwo="18"  coef="1.23"/><qTerm  idx="-1"  idxOne="18"  idxTwo="20"  coef="-1.6542"/><qTerm  idx="-1"  idxOne="18"  idxTwo="21"  coef="-.2124"/><qTerm  idx="-1"  idxOne="18"  idxTwo="23"  coef="-.3925"/><qTerm  idx="-1"  idxOne="18"  idxTwo="24"  coef=".3753"/><qTerm  idx="-1"  idxOne="18"  idxTwo="25"  coef="-.6415"/><qTerm  idx="-1"  idxOne="18"  idxTwo="27"  coef="1.3785"/><qTerm  idx="-1"  idxOne="18"  idxTwo="28"  coef="1.5984"/><qTerm  idx="-1"  idxOne="19"  idxTwo="24"  coef="2.23e-2"/><qTerm  idx="-1"  idxOne="19"  idxTwo="26"  coef="-1.3244"/><qTerm  idx="-1"  idxOne="19"  idxTwo="27"  coef=".8635"/><qTerm  idx="-1"  idxOne="20"  idxTwo="20"  coef="1.e-4"/><qTerm  idx="-1"  idxOne="20"  idxTwo="22"  coef="-1.8844"/><qTerm  idx="-1"  idxOne="20"  idxTwo="23"  coef="-1.8642"/><qTerm  idx="-1"  idxOne="20"  idxTwo="24"  coef=".3989"/><qTerm  idx="-1"  idxOne="20"  idxTwo="25"  coef="-1.4142"/><qTerm  idx="-1"  idxOne="20"  idxTwo="26"  coef="-1.2457"/><qTerm  idx="-1"  idxOne="20"  idxTwo="27"  coef="1.9184"/><qTerm  idx="-1"  idxOne="21"  idxTwo="21"  coef="-1.2678"/><qTerm  idx="-1"  idxOne="21"  idxTwo="23"  coef="-1.18"/><qTerm  idx="-1"  idxOne="21"  idxTwo="24"  coef="-.6699"/><qTerm  idx="-1"  idxOne="21"  idxTwo="25"  coef="1.8284"/><qTerm  idx="-1"  idxOne="21"  idxTwo="26"  coef="-1.73e-2"/><qTerm  idx="-1"  idxOne="21"  idxTwo="28"  coef=".9135"/><qTerm  idx="-1"  idxOne="22"  idxTwo="24"  coef="-1.3971"/><qTerm  idx="-1"  idxOne="22"  idxTwo="26"  coef=".5847"/><qTerm  idx="-1"  idxOne="22"  idxTwo="27"  coef="-1.0156"/><qTerm  idx="-1"  idxOne="23"  idxTwo="26"  coef="-3.98e-2"/><qTerm  idx="-1"  idxOne="24"  idxTwo="24"  coef="-1.0359"/><qTerm  idx="-1"  idxOne="24"  idxTwo="26"  coef="-1.5722"/><qTerm  idx="-1"  idxOne="24"  idxTwo="27"  coef="-.7297"/><qTerm  idx="-1"  idxOne="24"  idxTwo="28"  coef=".8367"/><qTerm  idx="-1"  idxOne="24"  idxTwo="29"  coef="1.7655"/><qTerm  idx="-1"  idxOne="25"  idxTwo="25"  coef="-1.9422"/><qTerm  idx="-1"  idxOne="25"  idxTwo="26"  coef=".4229"/><qTerm  idx="-1"  idxOne="25"  idxTwo="27"  coef=".1067"/><qTerm  idx="-1"  idxOne="25"  idxTwo="29"  coef="-.9228"/><qTerm  idx="-1"  idxOne="26"  idxTwo="27"  coef=".7596"/><qTerm  idx="-1"  idxOne="26"  idxTwo="29"  coef="-1.9001"/><qTerm  idx="-1"  idxOne="27"  idxTwo="28"  coef="-.1883"/><qTerm  idx="-1"  idxOne="28"  idxTwo="28"  coef="-.622"/></quadraticCoefficients></instanceData></osil>
